c WARNING: for repeatability, setting FPU to use double precision
d VARIABLES            61354        
d CONSTRAINTS          260703       
c ============================[ Problem Statistics ]=============================
c |                                                                             |
c |  Number of variables:         61354                                         |
c |  Number of clauses:          260703                                         |
c |  Parse time:                   0.04 s                                       |
c |                                                                             |
c ============================[ Search Statistics ]==============================
c | Conflicts |          ORIGINAL         |          LEARNT          | Progress |
c |           |    Vars  Clauses Literals |    Limit  Clauses Lit/Cl |          |
c ===============================================================================
c |       100 |   48760   224823   547106 |    82435      100     23 | 20.527 % |
c |       250 |   48760   224823   547106 |    90678      250     39 | 20.527 % |
c |       475 |   48760   224823   547106 |    99746      475     64 | 20.527 % |
c |       812 |   48760   224823   547106 |   109721      812     65 | 20.527 % |
c |      1318 |   48760   224823   547106 |   120693     1318     73 | 20.527 % |
c |      2077 |   48760   224823   547106 |   132762     2077     63 | 20.527 % |
c |      3216 |   48760   224823   547106 |   146038     3216     74 | 20.527 % |
c |      4924 |   48760   224823   547106 |   160642     4924     70 | 20.527 % |
c |      7486 |   48760   224823   547106 |   176706     7486     80 | 20.527 % |
c |     11330 |   48760   224823   547106 |   194377    11330     81 | 20.527 % |
c |     17096 |   48760   224823   547106 |   213815    17096     85 | 20.527 % |
c |     25745 |   48760   224823   547106 |   235196    25745     91 | 20.527 % |
c |     38719 |   48760   224823   547106 |   258716    38719     90 | 20.527 % |
c |     58180 |   48760   224823   547106 |   284588    58180     88 | 20.527 % |
c |     87372 |   48759   224813   547083 |   313047    87367     84 | 20.528 % |
c ===============================================================================
c restarts              : 255
c conflicts             : 91528          (3161 /sec)
c decisions             : 222689         (0.00 % random) (7691 /sec)
c propagations          : 116554739      (4025541 /sec)
c conflict literals     : 7583743        (43.42 % deleted)
d RESTARTS             255
d FAILURES             91528        
d NODES                222689       
d BACKTRACKS           222689       
d PROPAGATIONS         116554739    
d NOGOODSIZE           82.86 
d MEMORY               72.00 
d TIME                 28.9538 

s UNSATISFIABLE
